WARNING: for repeatability, setting FPU to use double precision
============================[ Problem Statistics ]=============================
|                                                                             |
|  Number of variables:        852822                                         |
|  Number of clauses:         2626665                                         |
|  Parse time:                   0.59 s                                       |
|                                                                             |
c ============================[ Search Statistics ]==============================
c | Conflicts |          ORIGINAL         |          LEARNT          | Progress |
c |           |    Vars  Clauses Literals |    Limit  Clauses Lit/Cl |          |
c ===============================================================================
c Switched to VSIDS.
c Switched to LRB.
c Switched to VSIDS.
c Switched to LRB.
c Switched to VSIDS.
c Switched to LRB.
c Switched to VSIDS.
c Switched to LRB.
c Switched to VSIDS.
c Switched to LRB.
c Switched to VSIDS.
c Switched to LRB.
c Switched to VSIDS.
c Switched to LRB.
c Switched to VSIDS.
c Switched to LRB.
c Switched to VSIDS.
c Switched to LRB.
c Switched to VSIDS.
c Switched to LRB.
c Switched to VSIDS.
c Switched to LRB.
c Switched to VSIDS.
c Switched to LRB.
c Switched to VSIDS.
c Switched to LRB.
c Switched to VSIDS.
c Switched to LRB.
c Switched to VSIDS.
c Switched to LRB.
c Switched to VSIDS.
c Switched to LRB.
c ===============================================================================
restarts                  : 2509
conflicts                 : 933602         (261 /sec)
decisions                 : 40535332       (0.00 % random) (11314 /sec)
propagations              : 7086018644     (1977875 /sec)
conflict literals         : 137329641      (31.07 % deleted)

conflicts w/ DIP found    : 787741         (84.38 % of conflicts)
conflicts w/ dangerous DIP: 0              (0.00 % of conflicts)
conflicts w/ DIP-learning : 160            (0.02 % of conflicts)
decisions on ext vars     : 704            (0.00 % of decisions)
total ext vars            : 61          
tried delete ext vars     : 3           
deleted ext vars          : 3           
max ext vars              : 58          

Memory used               : 794.00 MB
CPU time                  : 3582.64 s
DIP computation time      : 36.2618 s (1.01 % of total time)
ER_sel time               : 1.20449 s
ER_add time               : 0.001991 s
ER_delC time              : 0 s
ER_delV time              : 0.001054 s
ER_sub time               : 4.45243 s
ER_stat time              : 0 s

INDETERMINATE
